Set parameter TokenServer to value "hpc-licenses.hpcc.usc.edu"
Set parameter TimeLimit to value 3600
Gurobi Optimizer version 9.5.1 build v9.5.1rc2 (linux64)
Thread count: 20 physical cores, 20 logical processors, using up to 20 threads
Optimize a model with 6007 rows, 4529 columns and 24534 nonzeros
Model fingerprint: 0x3d88d7f5
Variable types: 4506 continuous, 23 integer (23 binary)
Coefficient statistics:
  Matrix range     [1e+00, 1e+00]
  Objective range  [1e-03, 1e+00]
  Bounds range     [1e+00, 1e+00]
  RHS range        [1e+00, 1e+02]
Found heuristic solution: objective 278.7310364
Presolve removed 1520 rows and 1515 columns
Presolve time: 0.05s
Presolved: 4487 rows, 3014 columns, 21975 nonzeros
Variable types: 2994 continuous, 20 integer (20 binary)

Root relaxation: objective 2.878824e+02, 2959 iterations, 0.10 seconds (0.15 work units)

    Nodes    |    Current Node    |     Objective Bounds      |     Work
 Expl Unexpl |  Obj  Depth IntInf | Incumbent    BestBd   Gap | It/Node Time

     0     0  287.88236    0    2  278.73104  287.88236  3.28%     -    0s
     0     0  287.76053    0    3  278.73104  287.76053  3.24%     -    0s
H    0     0                     279.6030449  287.76053  2.92%     -    0s
     0     0  287.66818    0    3  279.60304  287.66818  2.88%     -    0s
     0     0  287.66814    0    3  279.60304  287.66814  2.88%     -    0s
H    0     0                     287.1750686  287.66814  0.17%     -    0s
     0     0  287.61397    0    3  287.17507  287.61397  0.15%     -    0s
     0     0  287.61397    0    2  287.17507  287.61397  0.15%     -    0s
     0     0  287.50219    0    3  287.17507  287.50219  0.11%     -    1s
     0     0  287.17507    0    3  287.17507  287.17507  0.00%     -    1s

Cutting planes:
  Gomory: 6
  MIR: 352
  Flow cover: 2
  RLT: 9

Explored 1 nodes (5080 simplex iterations) in 1.61 seconds (0.70 work units)
Thread count was 20 (of 20 available processors)

Solution count 3: 287.175 279.603 278.731 

Optimal solution found (tolerance 1.00e-04)
Best objective 2.871750686335e+02, best bound 2.871750686335e+02, gap 0.0000%



#########node  1
V1.8
#########node  2
0.0,1.0
#########node  3
1.0,0.0


Total Solving Time 2.035177230834961
obj value 287.17506863348274
Policy Regret train (Sum) 3.4466623243982886
Best Treatment Found train (%) 75.4
treatment classification acc train (%) 61.8
Policy Regret test (Sum) 33.68478658989411
Best Treatment Found test (%) 82.75
treatment classification acc test (%) 60.550000000000004
